5	14	17	20	15	5	13	5	16	6	12	14	20	16	4	19	7	7	6	17
10	16	1	6	1	4	1	2	2	14	9	15	7	10	6	15	12	8	15	10
18	5	6	13	4	12	17	9	2	17	18	11	7	4	17	5	8	6	9	6
3	14	6	7	2	10	9	1	17	19	4	8	17	9	12	13	11	8	14	17
19	8	8	18	13	10	4	9	3	3	14	2	9	7	20	11	9	18	16	8
18	7	1	19	10	13	12	8	8	11	20	4	17	5	16	4	11	8	17	3
17	7	14	9	17	11	10	10	13	6	15	11	14	15	9	5	15	20	8	9
15	1	2	10	20	20	10	1	11	13	16	5	11	15	12	13	9	13	7	4
13	11	13	1	20	9	5	7	17	5	4	5	8	11	19	7	8	15	20	1
